Li8
1.0
        3.4212360382         0.0000000000         0.0000000000
        0.0000000000         3.4212360382         0.0000000000
        0.0000000000         0.0000000000        30.7911205292
   Li
    9
Selective dynamics
Direct
     0.000000000         0.000000000        -0.027778000 F F F
     0.500000000         0.500000000         0.027778000 F F F
     0.000000000         0.000000000         0.083333001 F F F
     0.500000000         0.500000000         0.138889000 F F F
     0.000000000         0.000000000         0.194444001 T T T
     0.500000000         0.500000000         0.250000000 T T T
     0.000000000         0.000000000         0.305555999 T T T
     0.500000000         0.500000000         0.361110985 T T T
     0.000000000         0.000000000         0.416667014 T T T
