Li9
1.0
3.421236 0.000000 0.000000
0.000000 3.421236 0.000000
0.000000 0.000000 30.791121
Li
9
Selective dynamics
direct
0.000000 0.000000 0.037778 F F F Li
0.500000 0.500000 0.093334 F F F Li
0.000000 0.000000 0.148889 F F F Li
0.500000 0.500000 0.204445 F F F Li
0.000000 0.000000 0.260000 T T T Li
0.500000 0.500000 0.315556 T T T Li
0.000000 0.000000 0.371112 T T T Li
0.500000 0.500000 0.426667 T T T Li
0.000000 0.000000 0.482223 T T T Li
