Li8 O4                                  
1.0
        4.5681838989         0.0000000000         0.0000000000
        0.0000000000         3.2301938534         0.0000000000
        0.0000000000         0.0000000000        38.7623252869
   Li    O
   26   13
Selective dynamics
Direct
     0.500000000         0.000000000         0.041666668 T T T
     0.000000000         0.000000000         0.041666836 T T T
     0.000000000         0.500000000         0.083333336 T T T
     0.500000000         0.500000000         0.083333336 T T T
     0.000000000         0.000000000         0.125000000 T T T
     0.500000000         0.000000000         0.125000000 T T T
     0.000000000         0.500000000         0.166666672 F F F
     0.500000000         0.500000000         0.166666672 F F F
     0.000000000         0.000000000         0.208333328 F F F
     0.500000000         0.000000000         0.208333328 F F F
     0.000000000         0.500000000         0.250000000 F F F
     0.500000000         0.500000000         0.250000000 F F F
     0.000000000         0.000000000         0.291666657 F F F
     0.500000000         0.000000000         0.291666657 F F F
     0.000000000         0.500000000         0.333333343 F F F
     0.500000000         0.500000000         0.333333343 F F F
     0.000000000         0.000000000         0.375000000 F F F
     0.500000000         0.000000000         0.375000000 F F F
     0.500000000         0.500000000         0.416666657 F F F
     0.000000000         0.500000000         0.416666657 F F F
     0.000000000         0.000000000         0.458333343 T T T
     0.500000000         0.000000000         0.458333343 T T T
     0.000000000         0.500000000         0.500000000 T T T
     0.500000000         0.500000000         0.500000000 T T T
     0.500000000         0.000000000         0.541666687 T T T
     0.000000000         0.000000000         0.541666687 T T T
     0.250000000         0.500000000         0.041666668 T T T
     0.750000000         0.000000000         0.083333336 T T T
     0.250000000         0.500000000         0.125000000 T T T
     0.750000000         0.000000000         0.166666672 F F F
     0.250000000         0.500000000         0.208333328 F F F
     0.750000000         0.000000000         0.250000000 F F F
     0.250000000         0.500000000         0.291666657 F F F
     0.750000000         0.000000000         0.333333343 F F F
     0.250000000         0.500000000         0.375000000 F F F
     0.750000000         0.000000000         0.416666657 F F F
     0.250000000         0.500000000         0.458333343 T T T
     0.750000000         0.000000000         0.500000000 T T T
     0.250000000         0.500000000         0.541666687 T T T
