As1 Ga1
1.0
        5.7507338524         0.0000000000         0.0000000000
        0.0000000000         4.0663828850         0.0000000000
        0.0000000000         0.0000000000        32.5310630798
   Ga   As
    9    9
Selective dynamics
Direct
     0.000000000         0.000000000         0.000000000 F F F
     0.499999970         0.499999970         0.062499996 F F F
     0.000000000         0.000000000         0.124999993 F F F
     0.499999970         0.499999970         0.187499985 F F F
     0.000000000         0.000000000         0.249999985 F F F
     0.499999970         0.499999970         0.312499970 F F F
     0.000000000         0.000000000         0.374999970 T T T
     0.499999970         0.499999970         0.437499970 T T T
     0.000000000         0.000000000         0.499999970 T T T
     0.749999940         0.499999970         0.000000000 F F F
     0.249999985         0.000000000         0.062499996 F F F
     0.749999940         0.499999970         0.124999993 F F F
     0.249999985         0.000000000         0.187499985 F F F
     0.749999940         0.499999970         0.249999985 F F F
     0.249999985         0.000000000         0.312499970 F F F
     0.749999940         0.499999970         0.374999970 T T T
     0.249999985         0.000000000         0.437499970 T T T
     0.749999940         0.499999970         0.499999970 T T T
